NAME : traveling-santa-2018-prime-paths.29490.tour
COMMENT : Length = 29490
COMMENT : Found by LKH [Keld Helsgaun] Sun Jun 12 19:59:56 2022
TYPE : TOUR
DIMENSION : 100
TOUR_SECTION
1
6
63
66
97
27
15
29
14
2
87
70
53
57
74
16
19
91
26
50
64
13
45
78
60
76
56
90
73
86
33
95
58
36
17
68
48
82
81
32
3
88
38
39
59
75
24
83
100
65
20
28
11
69
85
49
43
9
51
67
46
18
61
89
54
4
23
47
12
35
25
30
92
40
52
5
94
55
62
80
8
84
22
42
44
10
98
72
96
41
34
99
31
21
93
37
7
71
77
79
-1
EOF
